; benchmark generated from python API
(set-info :status unknown)
(declare-datatypes ((RealState 0)) (((RMk1 (rval1 Real)) (RMk2 (rval2 Real)))))
 (declare-fun ep () Real)
(declare-fun V () Real)
(declare-fun v2uscore1dollarskuscore206 () Real)
(declare-fun v1uscore1dollarskuscore206 () Real)
(declare-fun t209uscore0 () Real)
(declare-fun A () Real)
(declare-fun v2 () Real)
(declare-fun v1 () Real)
(declare-fun B () Real)
(declare-fun x2 () Real)
(declare-fun xI2 () Real)
(declare-fun I2 () Real)
(declare-fun x1 () Real)
(declare-fun xI1 () Real)
(declare-fun I1 () Real)
(declare-fun I1uscore1dollarskuscore206 () Real)
(declare-fun I2uscore1dollarskuscore206 () Real)
(declare-fun x2uscore1dollarskuscore144 () Real)
(assert
 (let (($x252 (exists ((ts209uscore0_st RealState) (val!128 Real) )(let (($x229 (or (= 0.0 2.0) (= 2.0 2.0))))
 (let (($x235 (and (>= v1uscore1dollarskuscore206 0.0) (<= v1uscore1dollarskuscore206 V))))
 (let (($x125 (and (and $x235 (>= v2uscore1dollarskuscore206 0.0)) (<= v2uscore1dollarskuscore206 V))))
 (let (($x183 (=> (and (<= 0.0 (rval2 ts209uscore0_st)) (<= (rval2 ts209uscore0_st) t209uscore0)) (and $x125 (<= (+ (rval2 ts209uscore0_st) 0.0) ep)))))
 (let (($x20 (>= t209uscore0 0.0)))
 (let (($x139 (and (= v2uscore1dollarskuscore206 V) (= xI2 x2uscore1dollarskuscore144))))
 (let (($x97 (and (and $x139 (= v1uscore1dollarskuscore206 V)) (= I2uscore1dollarskuscore206 1.0))))
 (let (($x67 (and (and $x97 (< xI2 x2uscore1dollarskuscore144)) (= I2uscore1dollarskuscore206 2.0))))
 (let (($x135 (and (and $x67 (= I1uscore1dollarskuscore206 2.0)) (= I1 2.0))))
 (let (($x169 (and (and (and $x135 (< xI1 x1)) (= I2 2.0)) (< xI2 x2))))
 (let (($x91 (and (and (and $x169 (> B 0.0)) (>= v1 0.0)) (<= v1 V))))
 (let (($x84 (and (and (and $x91 (>= v2 0.0)) (<= v2 V)) (>= A 0.0))))
 (let (($x194 (and (and $x84 (> V 0.0)) (> ep 0.0))))
 (let (($x94 (not (= ts209uscore0_st (RMk1 val!128)))))
 (and $x94 (=> (and $x194 $x20 $x183) $x229)))))))))))))))))
 ))
 (not $x252)))
(check-sat)
